NAME : U-A-n62-k8.1293937.tour
COMMENT : Cost = 0_1293937
COMMENT : Found by LKH [Keld Helsgaun] Wed Sep 13 14:27:33 2017
TYPE : TOUR
DIMENSION : 69
TOUR_SECTION
1
15
6
10
55
4
40
28
24
42
22
5
12
32
35
69
53
3
45
23
38
17
37
66
39
20
19
31
2
14
13
49
54
68
60
27
36
50
26
61
57
67
7
33
58
51
18
59
34
56
64
46
48
25
43
47
63
8
11
9
44
30
62
41
21
65
52
29
16
-1
EOF
